num_offers = 25;
num_halls = 10;
start=[40,68,57,54,21,30,46,60,3,19,63,65,41,3,49,25,15,18,20,67,12,7,30,51,45];
end=[72,75,68,74,85,37,68,78,69,63,85,88,91,81,78,92,65,71,64,98,16,30,64,92,95];
price=[964,772,962,972,2675,512,1000,270,4785,1754,455,1803,3442,1719,2063,6623,2533,1252,3772,2181,105,1264,1551,4022,1688];
requirement=[806,348,738,357,685,629,302,407,667,982,416,691,983,336,475,677,225,825,267,688,878,312,695,309,934];
capacity=[672,849,866,446,937,247,902,975,567,927];
